/*********************************************
 * OPL 12.9.0.0 Data
 * Author: Ася Троян
 * Creation Date: Dec 10, 2020 at 7:20:06 AM
 *********************************************/

 wagons = {1, 2, 3};
 
 shipmentPoint = {1, 2, 3, 4, 5, 6, 7};
 
 startPoint = {1, 2, 3};
 
 startPointStartDateWagon = [ 5, 0, 22 ];
 pointOfStart = [1, 2, 3];
 
 shippmentStartDate = [ 10, 14, 20, 30, 33, 37, 40];
 shippmentDuration = [ 5, 15, 7, 10, 8, 2, 3]; 
 
  emptyTrainStartDuration = 
 [
 [2, 5, 10, -1, 6, 7, 1],
 [8, 4, 1,  9,  8, 2, 8],
 [1, 5, 7, 10,  2, 5, 8]
 ];
 
 emptyTrainShipmentDuration = 
 [
 [2, 5, 10, -1, 6, 7, 1],
 [8, 14, 1,  9,  8, 2, 8],
 [1, 5, 7, 12,  4, 5, 8],
 [2, 5, 2, 1, 6, 7, 1],
 [9, 4, 1,  9,  8, -1, 8],
 [1, 3, -1,  9,  3, 9, 4],
 [7, 5, 7, 10,  2, 5, 18]
 ];
 
 
